g3 0 1 0	# problem d3n16R4R9d005d1
 16 12 1 0 4	# vars, constraints, objectives, ranges, eqns
 5 1	# nonlinear constraints, objectives
 0 0	# network constraints: nonlinear, linear
 16 16 16	# nonlinear vars in constraints, objectives, both
 0 0 0 1	# linear network variables; functions; arith, flags
 0 0 0 0 0	# discrete variables: binary, integer, nonlinear (b,c,o)
 192 16	# nonzeros in Jacobian, gradients
 0 0	# max name lengths: constraints, variables
 0 0 0 0 0	# common exprs: b,c,o,c1,o1
b
0 0.01 2.68
0 0 2.48
0 0.01 2.18
0 0.96 2.31
0 0.05 2.51
0 0.66 2.26
0 0.08 2.95
0 0.28 2.92
0 0.18 2.2
0 0.44 2.11
0 0.58 2.98
0 0.21 2.22
0 0.84 2.11
0 0.24 2.51
0 0.92 2.85
0 0.76 2.81
r
2 160.462
2 564.734
2 137.715
2 572.034
2 163.628
4 101.103
4 133.115
4 74.827
4 67.032
2 103.865
2 41.411
2 75.304
C0
o54
6
o2
o2
n2.26
v0
v15
o2
o2
n8.2
v4
v15
o2
o2
n2.17
v5
v6
o2
o2
n9.08
v5
v9
o2
o2
n0.25
v7
v8
o2
o2
n3.07
v8
v11
C1
o54
48
o2
o2
n6.73
v0
v15
o2
o2
n5.56
v4
v15
o2
o2
n5.97
v5
v6
o2
o2
n5.85
v5
v9
o2
o2
n5.5
v7
v8
o2
o2
n2.78
v8
v11
o2
o2
o2
n7.95
v0
v1
v3
o2
o2
o2
n0.77
v0
v1
v15
o2
o2
o2
n9.18
v0
v3
v4
o16
o2
o2
o2
n7.15
v0
v4
v8
o2
o2
o2
n6.38
v0
v4
v13
o16
o2
o2
o2
n7.62
v0
v6
v6
o2
o2
o2
n9.71
v1
v2
v9
o2
o2
o2
n3.52
v1
v5
v12
o2
o2
o2
n0.3
v1
v11
v12
o2
o2
o2
n6.24
v2
v2
v8
o2
o2
o2
n2.38
v2
v3
v3
o2
o2
o2
n9.09
v2
v3
v6
o2
o2
o2
n2.4
v2
v3
v12
o2
o2
o2
n1.83
v2
v4
v4
o2
o2
o2
n2.98
v2
v5
v8
o2
o2
o2
n8.44
v2
v6
v11
o2
o2
o2
n4.37
v2
v12
v12
o2
o2
o2
n3.08
v3
v5
v8
o16
o2
o2
o2
n1.36
v3
v5
v15
o2
o2
o2
n4.86
v3
v8
v11
o2
o2
o2
n8.48
v3
v9
v13
o2
o2
o2
n6.58
v3
v11
v13
o16
o2
o2
o2
n1.1
v3
v12
v13
o16
o2
o2
o2
n7.81
v4
v6
v6
o2
o2
o2
n5.49
v4
v12
v14
o2
o2
o2
n7.53
v5
v6
v14
o2
o2
o2
n5.5
v5
v10
v13
o2
o2
o2
n6.79
v6
v6
v13
o16
o2
o2
o2
n8.69
v6
v11
v15
o2
o2
o2
n6.59
v6
v13
v15
o2
o2
o2
n9.81
v7
v7
v11
o2
o2
o2
n1.33
v7
v8
v12
o2
o2
o2
n4.28
v7
v8
v15
o2
o2
o2
n3.12
v7
v9
v15
o16
o2
o2
o2
n9.7
v7
v11
v15
o2
o2
o2
n7.31
v8
v8
v9
o2
o2
o2
n7.97
v8
v9
v15
o2
o2
o2
n4.51
v8
v10
v12
o2
o2
o2
n6.02
v8
v11
v11
o2
o2
o2
n9.46
v8
v14
v15
o2
o2
o2
n7.83
v9
v11
v14
o2
o2
o2
n1.92
v10
v11
v14
C2
o54
6
o2
o2
n1.15
v0
v15
o2
o2
n7.87
v4
v15
o2
o2
n2.6
v5
v6
o2
o2
n6.49
v5
v9
o2
o2
n2.9
v7
v8
o2
o2
n2.63
v8
v11
C3
o54
48
o2
o2
n6.26
v0
v15
o2
o2
n7.09
v4
v15
o2
o2
n3.32
v5
v6
o16
o2
o2
n3.69
v5
v9
o16
o2
o2
n2.43
v7
v8
o2
o2
n0.22
v8
v11
o2
o2
o2
n9.99
v0
v1
v3
o2
o2
o2
n1.57
v0
v1
v15
o16
o2
o2
o2
n6.68
v0
v3
v4
o2
o2
o2
n2.76
v0
v4
v8
o16
o2
o2
o2
n6.83
v0
v4
v13
o2
o2
o2
n5.45
v0
v6
v6
o2
o2
o2
n9.72
v1
v2
v9
o2
o2
o2
n2.23
v1
v5
v12
o16
o2
o2
o2
n0.67
v1
v11
v12
o2
o2
o2
n8.97
v2
v2
v8
o2
o2
o2
n4.73
v2
v3
v3
o2
o2
o2
n0.58
v2
v3
v6
o2
o2
o2
n0.79
v2
v3
v12
o2
o2
o2
n0.4
v2
v4
v4
o2
o2
o2
n8.89
v2
v5
v8
o2
o2
o2
n8.64
v2
v6
v11
o2
o2
o2
n8.63
v2
v12
v12
o2
o2
o2
n0.15
v3
v5
v8
o2
o2
o2
n1.31
v3
v5
v15
o2
o2
o2
n6.74
v3
v8
v11
o2
o2
o2
n3.84
v3
v9
v13
o2
o2
o2
n4.56
v3
v11
v13
o2
o2
o2
n7.06
v3
v12
v13
o16
o2
o2
o2
n1.63
v4
v6
v6
o2
o2
o2
n6.4
v4
v12
v14
o2
o2
o2
n5.98
v5
v6
v14
o2
o2
o2
n7.57
v5
v10
v13
o2
o2
o2
n9.68
v6
v6
v13
o2
o2
o2
n5.2
v6
v11
v15
o2
o2
o2
n9.02
v6
v13
v15
o2
o2
o2
n7.21
v7
v7
v11
o2
o2
o2
n6.25
v7
v8
v12
o16
o2
o2
o2
n2.69
v7
v8
v15
o2
o2
o2
n3.09
v7
v9
v15
o16
o2
o2
o2
n6.15
v7
v11
v15
o2
o2
o2
n1.38
v8
v8
v9
o2
o2
o2
n5.91
v8
v9
v15
o2
o2
o2
n1.21
v8
v10
v12
o2
o2
o2
n9.47
v8
v11
v11
o2
o2
o2
n1.72
v8
v14
v15
o2
o2
o2
n3.67
v9
v11
v14
o2
o2
o2
n5.05
v10
v11
v14
C4
o54
6
o2
o2
n9.57
v0
v15
o2
o2
n6.12
v4
v15
o2
o2
n0.58
v5
v6
o2
o2
n0.71
v5
v9
o2
o2
n3.18
v7
v8
o16
o2
o2
n3.61
v8
v11
C5
n0
C6
n0
C7
n0
C8
n0
C9
n0
C10
n0
C11
n0
O0 0
o54
48
o2
o2
n6.41
v0
v15
o2
o2
n0.26
v4
v15
o2
o2
n2.93
v5
v6
o16
o2
o2
n5.17
v5
v9
o2
o2
n8.62
v7
v8
o2
o2
n5.68
v8
v11
o2
o2
o2
n7.89
v0
v1
v3
o16
o2
o2
o2
n2.54
v0
v1
v15
o2
o2
o2
n8.33
v0
v3
v4
o2
o2
o2
n3.05
v0
v4
v8
o2
o2
o2
n5.54
v0
v4
v13
o2
o2
o2
n6.54
v0
v6
v6
o2
o2
o2
n4.99
v1
v2
v9
o2
o2
o2
n4.1
v1
v5
v12
o2
o2
o2
n1.42
v1
v11
v12
o2
o2
o2
n5.09
v2
v2
v8
o2
o2
o2
n0.9
v2
v3
v3
o2
o2
o2
n8.63
v2
v3
v6
o2
o2
o2
n6
v2
v3
v12
o2
o2
o2
n2.59
v2
v4
v4
o2
o2
o2
n9.35
v2
v5
v8
o2
o2
o2
n7.97
v2
v6
v11
o2
o2
o2
n5.89
v2
v12
v12
o16
o2
o2
o2
n1.58
v3
v5
v8
o16
o2
o2
o2
n9.06
v3
v5
v15
o2
o2
o2
n4.68
v3
v8
v11
o2
o2
o2
n1.43
v3
v9
v13
o2
o2
o2
n0.53
v3
v11
v13
o2
o2
o2
n4.83
v3
v12
v13
o2
o2
o2
n8.55
v4
v6
v6
o2
o2
o2
n0.49
v4
v12
v14
o2
o2
o2
n7.98
v5
v6
v14
o2
o2
o2
n4.43
v5
v10
v13
o2
o2
o2
n8.81
v6
v6
v13
o2
o2
o2
n8.44
v6
v11
v15
o16
o2
o2
o2
n2.85
v6
v13
v15
o2
o2
o2
n1.83
v7
v7
v11
o2
o2
o2
n2.62
v7
v8
v12
o2
o2
o2
n4.52
v7
v8
v15
o2
o2
o2
n1.09
v7
v9
v15
o2
o2
o2
n6.53
v7
v11
v15
o16
o2
o2
o2
n9.81
v8
v8
v9
o2
o2
o2
n4.33
v8
v9
v15
o2
o2
o2
n8.51
v8
v10
v12
o16
o2
o2
o2
n9.3
v8
v11
v11
o2
o2
o2
n3.8
v8
v14
v15
o2
o2
o2
n8.63
v9
v11
v14
o2
o2
o2
n9.87
v10
v11
v14
k15
12
24
36
48
60
72
84
96
108
120
132
144
156
168
180
J0 16
0 9.39
1 9.98
2 6.01
3 8.9
4 5
5 7.62
6 -4.71
7 2.85
8 8.77
9 4.97
10 1.35
11 8.35
12 2.61
13 2.52
14 1.98
15 4.61
J1 16
0 8
1 6.28
2 4.91
3 3.19
4 3.29
5 2.75
6 5.76
7 -7.84
8 -3.05
9 8.45
10 5.12
11 3.88
12 3.24
13 4.21
14 5.96
15 6.44
J2 16
0 1.68
1 2.33
2 9.14
3 7.06
4 3.04
5 2.93
6 1.94
7 2.56
8 0.45
9 -7.14
10 5.5
11 5.01
12 6.1
13 -2.08
14 9.43
15 9.35
J3 16
0 8.52
1 1.46
2 8.34
3 3.78
4 6.91
5 7.85
6 3.78
7 5.6
8 1.58
9 8.44
10 -0.91
11 -2.99
12 4.53
13 2.12
14 8.99
15 1.51
J4 16
0 1.2
1 8.32
2 7.99
3 0.16
4 3.3
5 4.21
6 4.24
7 6.82
8 9.44
9 9.47
10 6.52
11 8.47
12 -1.54
13 2.34
14 8.17
15 7.3
J5 16
0 9.43
1 7.28
2 1.35
3 5.45
4 1.34
5 5.82
6 1.16
7 6.37
8 2.29
9 3.77
10 6.03
11 4.99
12 1.25
13 3.27
14 8.4
15 0.19
J6 16
0 5.17
1 3.04
2 6.68
3 7.29
4 7.83
5 4.62
6 7.93
7 1.87
8 7.96
9 6.07
10 8.12
11 8.94
12 1
13 1.06
14 8.28
15 5.78
J7 16
0 2.11
1 1.84
2 4.02
3 7.81
4 9.08
5 -7.86
6 1.19
7 0.24
8 4.23
9 2.8
10 7.22
11 5.24
12 2.66
13 5.05
14 4.82
15 1.36
J8 16
0 9.97
1 -8.58
2 5
3 6.32
4 -3.38
5 9.32
6 -9.34
7 2.5
8 1.37
9 2.63
10 3.09
11 6.59
12 2.37
13 3.47
14 3.6
15 8.84
J9 16
0 -2.17
1 5.16
2 3.37
3 5.99
4 6.1
5 8.16
6 4.44
7 8.46
8 1.2
9 8.86
10 3.75
11 1.1
12 7.35
13 9.58
14 4
15 -3.01
J10 16
0 -5.71
1 0.18
2 3.4
3 2.15
4 -9.1
5 4.59
6 1.01
7 5.79
8 -3.33
9 -1.79
10 5.43
11 -1.7
12 2.11
13 2.38
14 7.67
15 7.61
J11 16
0 2.47
1 8.64
2 0.07
3 6.19
4 2.33
5 2.69
6 4.19
7 3.69
8 -5.93
9 -4.25
10 6.1
11 7.85
12 3.94
13 0.45
14 9.05
15 0.28
G0 16
0 0.53
1 4.62
2 -2.65
3 6.31
4 6.31
5 0.67
6 9.81
7 2.45
8 5.6
9 1.29
10 9.27
11 5.24
12 3.16
13 5.83
14 4.94
15 7.64
